# Objective value = 5
x0,1_28 0
x0,1_50 0
x0,1_53 0
x0,1_78 0
x0,1_82 0
x0,2_28 0
x0,2_50 1
x0,2_53 0
x0,2_78 0
x0,2_82 0
x0,3_28 0
x0,3_50 0
x0,3_53 0
x0,3_78 1
x0,3_82 0
x0,4_28 0
x0,4_50 0
x0,4_53 0
x0,4_78 0
x0,4_82 0
x1,2_28 0
x1,2_50 0
x1,2_53 0
x1,2_78 0
x1,2_82 0
x1,3_28 0
x1,3_50 0
x1,3_53 0
x1,3_78 0
x1,3_82 0
x1,4_28 0
x1,4_50 0
x1,4_53 0
x1,4_78 0
x1,4_82 1
x2,3_28 1
x2,3_50 0
x2,3_53 0
x2,3_78 0
x2,3_82 0
x2,4_28 0
x2,4_50 0
x2,4_53 1
x2,4_78 0
x2,4_82 0
x3,4_28 0
x3,4_50 0
x3,4_53 0
x3,4_78 0
x3,4_82 0
p0 0
p1 21
p2 50
p3 78
p4 103
